JOBS = 1..3;
MACHINES = 1..8;
SPEED = 1;
time = array3d(JOBS,MACHINES,1..SPEED,[41,16,18,68,34,40,93,75,26,61,56,42,72,74,79,21,86,73,22,18,38,50,93,33]);
energy = array3d(JOBS,MACHINES,1..SPEED,[66,85,83,50,71,67,39,47,77,54,57,65,48,47,45,81,42,48,80,83,68,60,39,71]);
precedence = array2d(JOBS,MACHINES,[0,3,1,2,6,4,5,7,3,6,5,0,7,4,2,1,5,1,7,3,2,4,6,0]);
ME = 2;
TE = 157;
st_old = array2d(JOBS,MACHINES,[0,127,41,59,276,143,183,310,142,363,307,0,424,233,63,42,233,33,412,144,106,183,319,0]);
SpeedScaling = array2d(JOBS,MACHINES,[1,1,1,1,1,1,1,1,1,1,1,1,1,1,1,1,1,1,1,1,1,1,1,1]);
